p tw 20 53
0 1
0 11
0 5
0 19
0 15
0 14
1 4
1 6
1 18
1 7
2 3
2 4
2 9
2 17
2 15
3 9
3 17
3 8
4 16
4 17
4 14
4 11
4 13
5 6
5 10
5 12
6 11
6 9
6 18
7 8
7 11
7 19
7 13
8 10
9 12
9 17
9 14
9 11
10 19
11 16
11 17
11 18
11 15
12 14
12 15
12 13
12 19
13 14
13 15
14 18
15 16
15 18
16 19
